c description: Random 4-CNF over 4 variables and 6 clauses
c generator: CNFgen (0.9.2)
c copyright: (C) 2012-2022 Massimo Lauria <massimo.lauria@uniroma1.it>
c url: https://massimolauria.net/cnfgen
c command line: cnfgen randkcnf 4 4 6
c
p cnf 4 6
1 2 -3 -4 0
-1 2 3 -4 0
-1 -2 3 -4 0
-1 2 -3 -4 0
1 -2 -3 4 0
-1 -2 -3 4 0
